Problem:    
Rows:       260
Columns:    89 (72 integer, 72 binary)
Non-zeros:  974
Status:     INTEGER OPTIMAL
Objective:  value = 99.316209 (MINimum)

   No.   Row name        Activity     Lower bound   Upper bound
------ ------------    ------------- ------------- -------------
     1 r.5                   99.3162             0               
     2 r.6                   55.5245      -977.253               
     3 r.7                   1099.32             0               
     4 r.8                  -950.412       -958.74               
     5 r.9                   1099.32             0               
     6 r.10                 -961.644      -977.053               
     7 r.11                  99.3162             0               
     8 r.12                  52.4147       -958.34               
     9 r.13                  1099.32             0               
    10 r.14                 -987.701      -997.524               
    11 r.15                  99.3162             0               
    12 r.16                  55.2414      -994.711               
    13 r.17                  1099.32             0               
    14 r.18                 -990.177      -995.053               
    15 r.19                  99.3162             0               
    16 r.20                  52.4147      -992.048               
    17 r.21                  1099.32             0               
    18 r.22                 -950.695      -989.051               
    19 r.23                  99.3162             0               
    20 r.24                  59.0747      -979.485               
    21 r.25                  1099.32             0               
    22 r.26                 -998.233      -998.233               
    23 r.27                  99.3162             0               
    24 r.28                  -996.04      -996.039               
    25 r.29                  1099.32             0               
    26 r.30                 -900.684      -953.098               
    27 r.31                  99.3162             0               
    28 r.32                  99.3162       -955.59               
    29 r.33                  99.3162             0               
    30 r.34                  99.3162      -954.344               
    31 r.35                  1099.32             0               
    32 r.36                 -900.684      -956.932               
    33 r.37                        1             1             = 
    34 r.38                        1             1             = 
    35 r.39                        1             1             = 
    36 r.40                        1             1             = 
    37 r.41                        1             1             = 
    38 r.42                        1             1             = 
    39 r.43                        1             1             = 
    40 r.44                        1             1             = 
    41 r.45                     1001             2               
    42 r.46                    -1001         -1001               
    43 r.47                  1985.94      -977.053               
    44 r.48                     1001             2               
    45 r.49                    -1001         -1001               
    46 r.50                     2000       -958.34               
    47 r.51                     1001             2               
    48 r.52                    -1001         -1001               
    49 r.53                  1959.88      -997.524               
    50 r.54                     1001             2               
    51 r.55                    -1001         -1001               
    52 r.56                  2002.83      -994.711               
    53 r.57                     1001             2               
    54 r.58                    -1001         -1001               
    55 r.59                  1957.41      -995.053               
    56 r.60                     1001             2               
    57 r.61                    -1001         -1001               
    58 r.62                     2000      -992.048               
    59 r.63                     1001             2               
    60 r.64                    -1001         -1001               
    61 r.65                  1996.89      -989.051               
    62 r.66                     1001             2               
    63 r.67                    -1001         -1001               
    64 r.68                  2006.66      -979.485               
    65 r.69                   50.648      -977.253               
    66 r.70                 -955.288       -958.74               
    67 r.71                  1054.39      -977.253               
    68 r.72                  48.4542       -958.74               
    69 r.73                 -953.098      -953.098               
    70 r.74                  46.9015       -955.59               
    71 r.75                 -953.098      -953.098               
    72 r.76                  46.9015       -955.59               
    73 r.77                  46.9015      -954.344               
    74 r.78                 -953.098      -956.932               
    75 r.79                  46.9015      -954.344               
    76 r.80                 -953.098      -956.932               
    77 r.81                     1001             2               
    78 r.82                    -1001         -1001               
    79 r.83                  2017.17       22.7468               
    80 r.84                     1001             2               
    81 r.85                    -1001         -1001               
    82 r.86                  1997.17       41.2602               
    83 r.87                        2             2               
    84 r.88                       -2         -1001               
    85 r.89                 -26.0567      -997.524               
    86 r.90                     1000             2               
    87 r.91                    -1000         -1001               
    88 r.92                  2002.83      -994.711               
    89 r.93                        2             2               
    90 r.94                       -2         -1001               
    91 r.95                 -28.5327      -995.053               
    92 r.96                     1000             2               
    93 r.97                    -1000         -1001               
    94 r.98                     2000      -992.048               
    95 r.99                        2             2               
    96 r.100                      -2         -1001               
    97 r.101                -989.051      -989.051               
    98 r.102                    1000             2               
    99 r.103                   -1000         -1001               
   100 r.104                 2006.66      -979.485               
   101 r.105                -966.521      -977.053               
   102 r.106                 47.5382       -958.34               
   103 r.107                  37.222      -977.053               
   104 r.108                 1051.28       -958.34               
   105 r.109                 -939.04      -953.098               
   106 r.110                 60.9604       -955.59               
   107 r.111                -953.098      -953.098               
   108 r.112                 46.9015       -955.59               
   109 r.113                    1001             2               
   110 r.114                   -1001         -1001               
   111 r.115                 2060.96      -954.344               
   112 r.116                    1001             2               
   113 r.117                   -1001         -1001               
   114 r.118                  2046.9      -956.932               
   115 r.119                    1001             2               
   116 r.120                   -1001         -1001               
   117 r.121                 2040.12       22.7468               
   118 r.122                    1001             2               
   119 r.123                   -1001         -1001               
   120 r.124                 1997.17       41.2602               
   121 r.125                       2             2               
   122 r.126                      -2         -1001               
   123 r.127                 22.9469       22.9469               
   124 r.128                    1000             2               
   125 r.129                   -1000         -1001               
   126 r.130                    2000       41.6595               
   127 r.131                       2             2               
   128 r.132                      -2         -1001               
   129 r.133                 -5.5858      -995.053               
   130 r.134                    1000             2               
   131 r.135                   -1000         -1001               
   132 r.136                    2000      -992.048               
   133 r.137                       2             2               
   134 r.138                      -2         -1001               
   135 r.139                -966.104      -989.051               
   136 r.140                    1000             2               
   137 r.141                   -1000         -1001               
   138 r.142                 2006.66      -979.485               
   139 r.143                -992.577      -997.524               
   140 r.144                 50.3649      -994.711               
   141 r.145                 11.1653      -997.524               
   142 r.146                 1054.11      -994.711               
   143 r.147                -916.093      -953.098               
   144 r.148                 83.9073       -955.59               
   145 r.149                -953.098      -953.098               
   146 r.150                 46.9015       -955.59               
   147 r.151                 83.9073      -954.344               
   148 r.152                -916.093      -956.932               
   149 r.153                 46.9015      -954.344               
   150 r.154                -953.098      -956.932               
   151 r.155                    1001             2               
   152 r.156                   -1001         -1001               
   153 r.157                  2045.7       22.7468               
   154 r.158                    1001             2               
   155 r.159                   -1001         -1001               
   156 r.160                 1997.17       41.2602               
   157 r.161                       2             2               
   158 r.162                      -2         -1001               
   159 r.163                 28.5327       22.9469               
   160 r.164                    1000             2               
   161 r.165                   -1000         -1001               
   162 r.166                    2000       41.6595               
   163 r.167                       2             2               
   164 r.168                      -2         -1001               
   165 r.169                   2.476         2.476               
   166 r.170                    1000             2               
   167 r.171                   -1000         -1001               
   168 r.172                 2002.83       5.28945               
   169 r.173                       2             2               
   170 r.174                      -2         -1001               
   171 r.175                -960.518      -989.051               
   172 r.176                    1000             2               
   173 r.177                   -1000         -1001               
   174 r.178                 2006.66      -979.485               
   175 r.179                -995.053      -995.053               
   176 r.180                 47.5382      -992.048               
   177 r.181                 8.68928      -995.053               
   178 r.182                 1051.28      -992.048               
   179 r.183                -910.507      -953.098               
   180 r.184                 89.4931       -955.59               
   181 r.185                -953.098      -953.098               
   182 r.186                 46.9015       -955.59               
   183 r.187                    1001             2               
   184 r.188                   -1001         -1001               
   185 r.189                 2089.49      -954.344               
   186 r.190                    1001             2               
   187 r.191                   -1001         -1001               
   188 r.192                  2046.9      -956.932               
   189 r.193                    1001             2               
   190 r.194                   -1001         -1001               
   191 r.195                 2003.11       22.7468               
   192 r.196                    1001             2               
   193 r.197                   -1001         -1001               
   194 r.198                 1993.34       41.2602               
   195 r.199                       2             2               
   196 r.200                      -2         -1001               
   197 r.201                 985.941       22.9469               
   198 r.202                    1000             2               
   199 r.203                   -1000         -1001               
   200 r.204                 1996.17       41.6595               
   201 r.205                       2             2               
   202 r.206                      -2         -1001               
   203 r.207                 959.884         2.476               
   204 r.208                    1000             2               
   205 r.209                   -1000         -1001               
   206 r.210                 1998.99       5.28945               
   207 r.211                       2             2               
   208 r.212                      -2         -1001               
   209 r.213                 957.408        4.9466               
   210 r.214                    1000             2               
   211 r.215                   -1000         -1001               
   212 r.216                 1996.17       7.95195               
   213 r.217                -955.572      -989.051               
   214 r.218                 54.1982      -979.485               
   215 r.219                 48.1711      -989.051               
   216 r.220                 1057.94      -979.485               
   217 r.221                       2             2               
   218 r.222                      -2         -1001               
   219 r.223                -953.098      -953.098               
   220 r.224                    1000             2               
   221 r.225                   -1000         -1001               
   222 r.226                 2043.07       -955.59               
   223 r.227                 46.9015      -954.344               
   224 r.228                -953.098      -956.932               
   225 r.229                 43.0682      -954.344               
   226 r.230                -956.932      -956.932               
   227 r.231                 -905.56      -953.098               
   228 r.232                 94.4397       -955.59               
   229 r.233                 98.1824      -953.098               
   230 r.234                 1098.18       -955.59               
   231 r.235                       2             2               
   232 r.236                      -2         -1001               
   233 r.237                 949.989       10.9491               
   234 r.238                    1000             2               
   235 r.239                   -1000         -1001               
   236 r.240                 1959.76       20.5153               
   237 r.241                    1001             2               
   238 r.242                   -1001         -1001               
   239 r.243                    2000      -954.344               
   240 r.244                    1001             2               
   241 r.245                   -1001         -1001               
   242 r.246                    2000      -956.932               
   243 r.247                    1001             2               
   244 r.248                   -1001         -1001               
   245 r.249                 1939.04       22.9469               
   246 r.250                    1001             2               
   247 r.251                   -1001         -1001               
   248 r.252                  1953.1       41.6595               
   249 r.253                    1001             2               
   250 r.254                   -1001         -1001               
   251 r.255                 1910.51        4.9466               
   252 r.256                    1001             2               
   253 r.257                   -1001         -1001               
   254 r.258                  1953.1       7.95195               
   255 r.259                    1001             2               
   256 r.260                   -1001         -1001               
   257 r.261                    2000       46.9015               
   258 r.262                    1001             2               
   259 r.263                   -1001         -1001               
   260 r.264                    2000       44.4103               

   No. Column name       Activity     Lower bound   Upper bound
------ ------------    ------------- ------------- -------------
     1 tt                    99.3162             0               
     2 s_1_1        *              0             0             1 
     3 t_1_1                 46.9015             0               
     4 s_1_8        *              0             0             1 
     5 s_1_7        *              1             0             1 
     6 s_2_1        *              1             0             1 
     7 t_2_1                 46.9015             0               
     8 s_2_8        *              1             0             1 
     9 s_2_7        *              0             0             1 
    10 s_1_2        *              1             0             1 
    11 t_1_2                 60.9604             0               
    12 s_2_2        *              0             0             1 
    13 t_2_2                 46.9015             0               
    14 s_1_3        *              1             0             1 
    15 t_1_3                 83.9073             0               
    16 s_2_3        *              0             0             1 
    17 t_2_3                 46.9015             0               
    18 s_1_4        *              1             0             1 
    19 t_1_4                 89.4931             0               
    20 s_2_4        *              0             0             1 
    21 t_2_4                 46.9015             0               
    22 s_1_5        *              1             0             1 
    23 t_1_5                 46.9015             0               
    24 s_2_5        *              0             0             1 
    25 t_2_5                 43.0682             0               
    26 s_1_6        *              1             0             1 
    27 t_1_6                 94.4397             0               
    28 s_2_6        *              0             0             1 
    29 t_2_6                 1098.18             0               
    30 t_1_7                       0             0               
    31 t_2_7                       0             0               
    32 t_1_8                       0             0               
    33 t_2_8                       0             0               
    34 r_1_1_2      *              1             0             1 
    35 u_1_1_2      *              0             0             1 
    36 r_2_1_2      *              1             0             1 
    37 u_2_1_2      *              0             0             1 
    38 r_1_1_3      *              1             0             1 
    39 u_1_1_3      *              0             0             1 
    40 r_2_1_3      *              1             0             1 
    41 u_2_1_3      *              0             0             1 
    42 r_1_1_4      *              1             0             1 
    43 u_1_1_4      *              0             0             1 
    44 r_2_1_4      *              1             0             1 
    45 u_2_1_4      *              0             0             1 
    46 r_1_1_5      *              1             0             1 
    47 u_1_1_5      *              0             0             1 
    48 r_2_1_5      *              1             0             1 
    49 u_2_1_5      *              0             0             1 
    50 r_1_2_3      *              0             0             1 
    51 u_1_2_3      *              0             0             1 
    52 r_2_2_3      *              1             0             1 
    53 u_2_2_3      *              0             0             1 
    54 r_1_2_4      *              0             0             1 
    55 u_1_2_4      *              0             0             1 
    56 r_2_2_4      *              1             0             1 
    57 u_2_2_4      *              0             0             1 
    58 r_1_2_5      *              0             0             1 
    59 u_1_2_5      *              1             0             1 
    60 r_2_2_5      *              1             0             1 
    61 u_2_2_5      *              0             0             1 
    62 r_1_2_8      *              1             0             1 
    63 u_1_2_8      *              0             0             1 
    64 r_2_2_8      *              1             0             1 
    65 u_2_2_8      *              0             0             1 
    66 r_1_3_4      *              0             0             1 
    67 u_1_3_4      *              0             0             1 
    68 r_2_3_4      *              1             0             1 
    69 u_2_3_4      *              0             0             1 
    70 r_1_3_5      *              0             0             1 
    71 u_1_3_5      *              1             0             1 
    72 r_2_3_5      *              1             0             1 
    73 u_2_3_5      *              0             0             1 
    74 r_1_4_5      *              0             0             1 
    75 u_1_4_5      *              1             0             1 
    76 r_2_4_5      *              1             0             1 
    77 u_2_4_5      *              0             0             1 
    78 r_1_4_8      *              1             0             1 
    79 u_1_4_8      *              0             0             1 
    80 r_2_4_8      *              1             0             1 
    81 u_2_4_8      *              0             0             1 
    82 r_1_5_7      *              0             0             1 
    83 u_1_5_7      *              1             0             1 
    84 r_2_5_7      *              1             0             1 
    85 u_2_5_7      *              0             0             1 
    86 r_1_7_8      *              1             0             1 
    87 u_1_7_8      *              0             0             1 
    88 r_2_7_8      *              1             0             1 
    89 u_2_7_8      *              0             0             1 

Integer feasibility conditions:

KKT.PE: max.abs.err = 4.55e-13 on row 43
        max.rel.err = 1.11e-16 on row 43
        High quality

KKT.PB: max.abs.err = 1.14e-13 on row 24
        max.rel.err = 2.56e-16 on row 165
        High quality

End of output
